50

100 21 223
97 30 442
96 29 215
92 12 456
89 4 438
88 1 333
88 22 358
87 13 359
83 25 549
75 16 563
75 2 291
72 4 294
71 20 211
70 18 508
69 1 287
66 16 320
63 1 403
62 12 489
62 15 558
61 1 346
60 10 421
58 5 558
50 8 536
47 3 512
46 11 580
40 10 287
40 4 456
37 11 511
36 4 444
32 1 346
31 2 358
30 1 219
28 8 566
27 5 322
27 2 553
26 2 404
24 6 220
18 1 472
16 2 471
14 3 294
13 4 514
12 1 267
10 3 537
10 1 311
10 1 297
8 1 366
7 3 539
5 2 237
4 2 239
2 1 591
